System=alloy_name
0
Gamma
18 18 18
0 0 0
